solution status: gap limit reached
objective value:                          45602.47945
y#4                                                 1 	(obj:5700)
y#5                                                 1 	(obj:5700)
y#7                                                 1 	(obj:5700)
y#8                                                 1 	(obj:5700)
y#9                                                 1 	(obj:5700)
y#11                                                1 	(obj:5700)
y#13                                                1 	(obj:5700)
y#14                                                1 	(obj:5700)
x#1#5                                               1 	(obj:0.02601)
x#2#4                                               1 	(obj:0.03281)
x#3#5                                               1 	(obj:0.00272)
x#4#13                                              1 	(obj:0.02941)
x#5#7                                               1 	(obj:0.05015)
x#6#7                                               1 	(obj:0.01904)
x#7#9                                               1 	(obj:0.02686)
x#8#11                                              1 	(obj:0.01241)
x#9#9                                               1 	(obj:0.01751)
x#10#9                                              1 	(obj:0.03842)
x#11#13                                             1 	(obj:0.02465)
x#12#11                                             1 	(obj:0.01241)
x#13#5                                              1 	(obj:0.03757)
x#14#8                                              1 	(obj:0.05899)
x#15#8                                              1 	(obj:0.01139)
x#16#14                                             1 	(obj:0.03434)
x#17#13                                             1 	(obj:0.02227)
x#18#7                                              1 	(obj:0.0408)
x#19#14                                             1 	(obj:0.03978)
x#20#14                                             1 	(obj:0.03349)
x#21#7                                              1 	(obj:0.0068)
x#22#4                                              1 	(obj:0.03485)
x#23#7                                              1 	(obj:0.00493)
x#24#11                                             1 	(obj:0.00595)
x#25#5                                              1 	(obj:0.0544)
x#26#14                                             1 	(obj:0.0357)
x#27#11                                             1 	(obj:0.01241)
x#28#9                                              1 	(obj:0.02924)
x#29#8                                              1 	(obj:0.03128)
x#30#13                                             1 	(obj:0.01785)
x#31#14                                             1 	(obj:0.0289)
x#32#5                                              1 	(obj:0.02329)
x#33#11                                             1 	(obj:0.01955)
x#34#4                                              1 	(obj:0.01343)
x#35#4                                              1 	(obj:0.02533)
x#36#8                                              1 	(obj:0.01224)
x#37#5                                              1 	(obj:0.02856)
x#38#8                                              1 	(obj:0.03162)
x#39#5                                              1 	(obj:0.05338)
x#40#4                                              1 	(obj:0.02533)
x#41#4                                              1 	(obj:0.02941)
x#42#7                                              1 	(obj:0.03502)
x#43#9                                              1 	(obj:0.02907)
x#44#8                                              1 	(obj:0.05508)
x#45#8                                              1 	(obj:0.02176)
x#46#11                                             1 	(obj:0.04964)
x#47#7                                              1 	(obj:0.05151)
x#48#8                                              1 	(obj:0.02465)
x#49#4                                              1 	(obj:0.017)
x#50#14                                             1 	(obj:0.03315)
x#51#9                                              1 	(obj:0.01938)
x#52#11                                             1 	(obj:0.02295)
x#53#8                                              1 	(obj:0.03621)
x#54#14                                             1 	(obj:0.03621)
x#55#5                                              1 	(obj:0.017)
x#56#4                                              1 	(obj:0.04199)
x#57#9                                              1 	(obj:0.02074)
x#58#13                                             1 	(obj:0.02057)
x#59#13                                             1 	(obj:0.03077)
x#60#11                                             1 	(obj:0.01309)
x#61#11                                             1 	(obj:0.03094)
x#62#9                                              1 	(obj:0.02516)
x#63#5                                              1 	(obj:0.01513)
x#64#13                                             1 	(obj:0.01428)
x#65#7                                              1 	(obj:0.01989)
x#66#7                                              1 	(obj:0.00782)
x#67#7                                              1 	(obj:0.03655)
x#68#14                                             1 	(obj:0.01139)
x#69#14                                             1 	(obj:0.03468)
x#70#7                                              1 	(obj:0.00918)
x#71#11                                             1 	(obj:0.01207)
x#72#4                                              1 	(obj:0.01173)
x#73#14                                             1 	(obj:0.02788)
x#74#5                                              1 	(obj:0.02125)
x#75#13                                             1 	(obj:0.03162)
x#76#13                                             1 	(obj:0.01734)
x#77#4                                              1 	(obj:0.03893)
x#78#14                                             1 	(obj:0.04488)
x#79#7                                              1 	(obj:0.04692)
x#80#13                                             1 	(obj:0.03485)
x#81#4                                              1 	(obj:0.03723)
x#82#9                                              1 	(obj:0.04369)
x#83#14                                             1 	(obj:0.06256)
x#84#5                                              1 	(obj:0.0136)
x#85#11                                             1 	(obj:0.01938)
x#86#13                                             1 	(obj:0.0187)
x#87#9                                              1 	(obj:0.0255)
x#88#9                                              1 	(obj:0.02567)
x#89#8                                              1 	(obj:0.01037)
x#90#8                                              1 	(obj:0.05899)
